r = [
0,93,81,3,20,17,35,90,90,20,92,0
];
p = [
0,2,22,28,21,19,13,24,27,23,11,0
];
e = [
0,6,6,6,10,10,15,10,14,11,5,0
];
d = [
0,258,103,142,200,84,87,216,225,182,260,270
];
d_bar = [
0,260,123,167,219,101,99,238,249,203,270,270
];
w = [
0,3,0.3,0.24,0.526315789,0.588235294,1.25,0.454545455,0.583333333,0.523809524,0.5,0
];
